;; ===================== PROJECTED CANON (QE) =====================
;; Each clause below is entailed by Proj = ∃W.F over the canonical vocabulary.
;; Units appear first for clarity; OR-clauses (SAT-filtered) follow.
;; ==================================================================

;; Unit Bool constraints (entailed)
(assert (not patient_has_diagnosis_of_epilepsy_inthehistory))
(assert (not patient_has_diagnosis_of_schizophrenia_inthehistory))
(assert (not patient_has_undergone_operation_on_nervous_system_inthehistory))
(assert (not patient_has_diagnosis_of_traumatic_and_or_non_traumatic_brain_injury_inthehistory))
